200 200
45 56
66 36
10 36
79 86
66 20
10 20
45 30
76 30
28 85
25 42
68 42
23 48
14 8
42 8
14 40
42 40
14 27
11 27
68 43
13 22
6 6
4 6
10 31
19 19
4 19
23 56
6 16
4 16
19 12
4 12
14 16
11 16
6 37
7 37
10 44
10 25
18 13
5 13
21 11
7 11
49 14
44 14
11 5
7 5
5 12
3 4
14 4
4 7
7 18
11 7
7 7
49 15
44 15
3 3
14 3
4 7
13 7
4 11
33 10
23 10
6 7
7 7
4 4
13 4
